problems/csplib-prob015/SchursLemma-models/noch/O2/lingeling/model_1_2-3-17-solution000001.eprime-solution
language ESSENCE' 1.0

letting boxes_PartitionAsSet_ExplicitR6_ExplicitVarSizeWithDummy be
        [[1, 6, 10, 12, 14, 17, 18, 18, 18, 18, 18, 18, 18, 18, 18, 18, 18; int(1..17)],
         [2, 4, 7, 8, 13, 16, 18, 18, 18, 18, 18, 18, 18, 18, 18, 18, 18; int(1..17)],
         [3, 5, 9, 11, 15, 18, 18, 18, 18, 18, 18, 18, 18, 18, 18, 18, 18; int(1..17)]; int(1..3)]
