problems/csplib-prob015/SchursLemma-models/noch/O2/lingeling/model_1_2-3-17-solution000001.solution
language Essence 1.3

letting boxes be partition({1, 6, 10, 12, 14, 17}, {2, 4, 7, 8, 13, 16}, {3, 5, 9, 11, 15})
